
Gurobi 7.0.2 (linux64, Python) logging started Sat Mar 11 18:56:56 2017


Gurobi 7.0.2 (linux64, Python) logging started Sat Mar 11 20:34:30 2017


Gurobi 7.0.2 (linux64, Python) logging started Sat Mar 11 20:41:38 2017


Gurobi 7.0.2 (linux64, Python) logging started Sat Mar 11 21:03:26 2017


Gurobi 7.0.2 (linux64, Python) logging started Sat Mar 11 21:04:11 2017


Gurobi 7.0.2 (linux64, Python) logging started Sat Mar 11 21:43:22 2017


Gurobi 7.0.2 (linux64, Python) logging started Sun Mar 12 00:03:54 2017


Gurobi 7.0.2 (linux64, Python) logging started Sun Mar 12 01:12:27 2017


Gurobi 7.0.2 (linux64, Python) logging started Sun Mar 12 01:57:50 2017


Gurobi 7.0.2 (linux64, Python) logging started Tue Mar 21 09:03:13 2017


Gurobi 7.0.2 (linux64, Python) logging started Tue Mar 21 10:40:55 2017


Gurobi 7.0.2 (linux64, Python) logging started Tue Mar 21 10:47:57 2017


Gurobi 7.0.2 (linux64, Python) logging started Tue Mar 21 11:09:37 2017


Gurobi 7.0.2 (linux64, Python) logging started Tue Mar 21 11:10:20 2017


Gurobi 7.0.2 (linux64, Python) logging started Tue Mar 21 11:48:13 2017


Gurobi 7.0.2 (linux64, Python) logging started Tue Mar 21 14:10:59 2017


Gurobi 7.0.2 (linux64, Python) logging started Tue Mar 21 15:29:52 2017


Gurobi 7.0.2 (linux64, Python) logging started Tue Mar 21 16:15:25 2017

